Geographic Exponential Decay
40 244 129 66 153 296 15 141 272 137 27 132 107 281 38 58 270 297 315 198 69 95 117 71 74 213 224 123 261 311 63 106 211 223 216 0 82 99 233 164 167
p edge 320 323
e 0 297 56.0
e 0 251 27.0
e 0 159 100.0
e 0 116 75.0
e 0 287 66.0
e 1 253 3.0
e 1 0 31.0
e 2 234 1.0
e 2 1 4.0
e 3 296 22.0
e 3 2 5.0
e 4 223 13.0
e 4 116 1.0
e 5 295 1.0
e 5 3 1.0
e 6 7 9.0
e 6 5 1.0
e 8 275 4.0
e 8 6 2.0
e 9 89 6.0
e 9 8 7.0
e 10 27 51.0
e 10 152 24.0
e 10 208 46.0
e 10 9 12.0
e 11 290 1.0
e 11 10 34.0
e 12 270 78.0
e 13 40 4.0
e 13 11 2.0
e 14 153 63.0
e 14 13 7.0
e 15 16 52.0
e 15 184 4.0
e 15 17 66.0
e 15 237 44.0
e 15 129 80.0
e 15 14 51.0
e 18 233 50.0
e 18 293 20.0
e 18 15 98.0
e 19 242 1.0
e 19 18 1.0
e 20 55 3.0
e 20 19 4.0
e 21 251 34.0
e 22 283 1.0
e 22 20 1.0
e 23 262 4.0
e 23 22 1.0
e 24 115 5.0
e 24 23 4.0
e 25 197 9.0
e 25 120 7.0
e 25 24 5.0
e 26 131 23.0
e 26 212 18.0
e 26 25 21.0
e 27 122 15.0
e 27 175 71.0
e 27 156 40.0
e 27 143 8.0
e 28 64 1.0
e 28 26 16.0
e 29 83 7.0
e 29 28 5.0
e 30 96 5.0
e 30 29 4.0
e 31 105 9.0
e 31 30 5.0
e 32 117 20.0
e 33 209 2.0
e 33 31 1.0
e 34 243 4.0
e 34 33 8.0
e 35 312 1.0
e 35 34 10.0
e 36 301 2.0
e 36 35 1.0
e 37 38 98.0
e 38 299 54.0
e 38 263 32.0
e 38 211 87.0
e 38 285 6.0
e 39 138 4.0
e 39 36 3.0
e 41 145 3.0
e 41 39 3.0
e 42 239 9.0
e 42 51 1.0
e 42 90 14.0
e 42 41 2.0
e 43 105 21.0
e 44 302 3.0
e 44 42 49.0
e 45 56 1.0
e 45 44 2.0
e 46 52 20.0
e 46 47 7.0
e 47 223 83.0
e 48 98 2.0
e 48 305 11.0
e 49 276 9.0
e 49 45 2.0
e 50 210 4.0
e 50 49 1.0
e 53 296 66.0
e 54 252 1.0
e 54 50 9.0
e 57 171 1.0
e 57 54 1.0
e 58 226 90.0
e 58 59 41.0
e 58 286 62.0
e 58 106 58.0
e 58 110 62.0
e 60 257 1.0
e 60 57 1.0
e 61 79 3.0
e 61 60 1.0
e 62 69 8.0
e 63 65 36.0
e 63 84 87.0
e 63 272 52.0
e 63 66 5.0
e 63 167 55.0
e 66 144 81.0
e 66 141 75.0
e 66 264 43.0
e 66 109 68.0
e 67 185 2.0
e 67 61 1.0
e 68 288 6.0
e 68 296 38.0
e 69 227 7.0
e 69 181 2.0
e 69 70 6.0
e 69 213 86.0
e 71 121 37.0
e 71 72 4.0
e 71 97 19.0
e 71 119 42.0
e 71 122 91.0
e 73 296 35.0
e 74 294 62.0
e 74 75 14.0
e 74 76 41.0
e 74 77 64.0
e 74 160 78.0
e 74 67 48.0
e 78 284 5.0
e 78 74 15.0
e 80 81 9.0
e 80 78 1.0
e 82 282 3.0
e 82 291 90.0
e 82 106 43.0
e 82 310 22.0
e 82 114 97.0
e 83 306 8.0
e 85 238 10.0
e 85 80 1.0
e 86 87 2.0
e 86 85 11.0
e 88 274 12.0
e 88 86 1.0
e 91 92 6.0
e 91 88 5.0
e 93 296 78.0
e 94 111 1.0
e 94 265 7.0
e 94 91 9.0
e 95 213 83.0
e 95 279 2.0
e 95 99 39.0
e 95 311 19.0
e 95 254 27.0
e 99 189 53.0
e 99 100 18.0
e 99 316 36.0
e 99 108 29.0
e 101 218 1.0
e 101 94 1.0
e 102 106 6.0
e 103 158 5.0
e 103 101 5.0
e 104 250 3.0
e 104 103 5.0
e 106 244 21.0
e 106 174 3.0
e 107 112 52.0
e 107 113 80.0
e 107 240 64.0
e 107 289 79.0
e 107 146 91.0
e 107 104 83.0
e 114 281 68.0
e 117 190 22.0
e 117 118 86.0
e 117 121 75.0
e 117 123 96.0
e 123 124 35.0
e 123 125 100.0
e 123 191 71.0
e 123 163 48.0
e 126 127 11.0
e 126 107 98.0
e 128 187 4.0
e 128 126 7.0
e 129 300 81.0
e 129 221 32.0
e 129 241 39.0
e 129 195 69.0
e 130 132 69.0
e 130 244 25.0
e 130 133 14.0
e 132 134 65.0
e 132 135 27.0
e 132 211 52.0
e 132 147 69.0
e 136 200 6.0
e 137 317 95.0
e 137 280 48.0
e 137 219 81.0
e 137 139 42.0
e 137 140 52.0
e 137 128 81.0
e 141 142 53.0
e 141 148 79.0
e 141 170 7.0
e 141 176 25.0
e 149 150 6.0
e 149 137 60.0
e 150 161 16.0
e 151 153 42.0
e 153 154 2.0
e 153 258 65.0
e 153 155 40.0
e 157 318 3.0
e 157 149 2.0
e 162 164 33.0
e 164 165 67.0
e 164 166 28.0
e 164 167 18.0
e 164 168 40.0
e 166 167 73.0
e 167 244 64.0
e 167 168 57.0
e 168 169 42.0
e 172 245 2.0
e 172 157 1.0
e 173 177 1.0
e 173 172 2.0
e 178 179 1.0
e 178 173 1.0
e 180 182 1.0
e 180 178 2.0
e 183 216 28.0
e 186 188 4.0
e 186 180 1.0
e 192 244 40.0
e 192 202 15.0
e 192 193 29.0
e 194 196 6.0
e 194 186 1.0
e 197 198 28.0
e 198 199 79.0
e 198 200 18.0
e 198 201 11.0
e 198 203 81.0
e 201 203 12.0
e 204 205 3.0
e 204 194 3.0
e 206 207 5.0
e 206 204 2.0
e 211 213 82.0
e 211 303 46.0
e 211 214 69.0
e 213 215 1.0
e 213 216 2.0
e 216 217 97.0
e 216 232 25.0
e 216 220 81.0
e 221 222 21.0
e 223 224 30.0
e 223 225 19.0
e 223 228 36.0
e 224 229 40.0
e 224 230 66.0
e 224 277 93.0
e 224 273 27.0
e 231 233 54.0
e 233 307 92.0
e 233 260 27.0
e 233 235 91.0
e 236 244 67.0
e 246 272 10.0
e 247 248 7.0
e 247 206 2.0
e 249 251 38.0
e 255 297 85.0
e 256 259 10.0
e 256 247 2.0
e 261 272 17.0
e 261 292 30.0
e 261 266 57.0
e 261 267 75.0
e 261 268 55.0
e 269 270 64.0
e 270 271 2.0
e 270 272 82.0
e 270 278 67.0
e 272 281 50.0
e 281 297 16.0
e 281 298 42.0
e 281 304 5.0
e 297 305 63.0
e 297 308 85.0
e 309 311 18.0
e 311 314 79.0
e 311 313 16.0
e 311 315 53.0
e 315 319 92.0
